language Essence 1.3

letting class be function(1 --> 2, 2 --> 2, 3 --> 2, 4 --> 2, 5 --> 2, 6 --> 1, 7 --> 2, 8 --> 1)
letting deck_length be 8
letting deck_width be 68
letting length be function(1 --> 1, 2 --> 5, 3 --> 1, 4 --> 4, 5 --> 5, 6 --> 3, 7 --> 3, 8 --> 7)
letting n_classes be 2
letting n_containers be 8
letting separation be function()
letting width be function(1 --> 3, 2 --> 26, 3 --> 1, 4 --> 4, 5 --> 4, 6 --> 1, 7 --> 2, 8 --> 15)
